formal_verification/runs/model_eval_v7_100/case_028/run/model/design_smt2.smt2
; SMT-LIBv2 description generated by Yosys 0.64+40 (git sha1 90b906c4f, clang++ 18.1.8 -fPIC -O3)
; yosys-smt2-module vert_formal_wrap
(declare-sort |vert_formal_wrap_s| 0)
(declare-fun |vert_formal_wrap_is| (|vert_formal_wrap_s|) Bool)
; yosys-smt2-witness {"offset": 0, "path": ["$auto$async2sync.cc:107:execute$239"], "smtname": 0, "smtoffset": 0, "type": "reg", "width": 1}
(declare-fun |vert_formal_wrap#0| (|vert_formal_wrap_s|) (_ BitVec 1)) ; $auto$async2sync.cc:107:execute$239
; yosys-smt2-register $auto$async2sync.cc:107:execute$239 1
(define-fun |vert_formal_wrap_n $auto$async2sync.cc:107:execute$239| ((state |vert_formal_wrap_s|)) Bool (= ((_ extract 0 0) (|vert_formal_wrap#0| state)) #b1))
; yosys-smt2-witness {"offset": 0, "path": ["\\_started"], "smtname": 1, "smtoffset": 0, "type": "reg", "width": 1}
(declare-fun |vert_formal_wrap#1| (|vert_formal_wrap_s|) (_ BitVec 1)) ; \_started
; yosys-smt2-register _started 1
; yosys-smt2-wire _started 1
(define-fun |vert_formal_wrap_n _started| ((state |vert_formal_wrap_s|)) Bool (= ((_ extract 0 0) (|vert_formal_wrap#1| state)) #b1))
; yosys-smt2-wire auth_13 32
(define-fun |vert_formal_wrap_n auth_13| ((state |vert_formal_wrap_s|)) (_ BitVec 32) #b00000000000000000000000000000000)
; yosys-smt2-wire auth_16 32
(define-fun |vert_formal_wrap_n auth_16| ((state |vert_formal_wrap_s|)) (_ BitVec 32) #b00000000000000000000000000000000)
; yosys-smt2-wire auth_204 32
(define-fun |vert_formal_wrap_n auth_204| ((state |vert_formal_wrap_s|)) (_ BitVec 32) #b00000000000000000000000000000000)
; yosys-smt2-wire auth_8 32
(define-fun |vert_formal_wrap_n auth_8| ((state |vert_formal_wrap_s|)) (_ BitVec 32) #b00000000000000000000000000000000)
; yosys-smt2-wire chip_20 32
(define-fun |vert_formal_wrap_n chip_20| ((state |vert_formal_wrap_s|)) (_ BitVec 32) #b00000000000000000000000000000000)
; yosys-smt2-wire clk_18 32
(define-fun |vert_formal_wrap_n clk_18| ((state |vert_formal_wrap_s|)) (_ BitVec 32) #b00000000000000000000000000000000)
; yosys-smt2-wire clk_6 32
(define-fun |vert_formal_wrap_n clk_6| ((state |vert_formal_wrap_s|)) (_ BitVec 32) #b00000000000000000000000000000000)
; yosys-smt2-wire core_4 32
(define-fun |vert_formal_wrap_n core_4| ((state |vert_formal_wrap_s|)) (_ BitVec 32) #b00000000000000000000000000000000)
; yosys-smt2-wire data_15 32
(define-fun |vert_formal_wrap_n data_15| ((state |vert_formal_wrap_s|)) (_ BitVec 32) #b00000000000000000000000000000000)
; yosys-smt2-wire fsm_13 32
(define-fun |vert_formal_wrap_n fsm_13| ((state |vert_formal_wrap_s|)) (_ BitVec 32) #b00000000000000000000000000000000)
; yosys-smt2-wire fsm_5 32
(define-fun |vert_formal_wrap_n fsm_5| ((state |vert_formal_wrap_s|)) (_ BitVec 32) #b00000000000000000000000000000000)
; yosys-smt2-wire hw_8 32
(define-fun |vert_formal_wrap_n hw_8| ((state |vert_formal_wrap_s|)) (_ BitVec 32) #b00000000000000000000000000000000)
; yosys-smt2-anyseq vert_formal_wrap#2 1 $auto$setundef.cc:350:execute$308
; yosys-smt2-witness {"offset": 0, "path": ["\\mem_clock_20"], "smtname": 2, "smtoffset": 0, "type": "seq", "width": 1}
(declare-fun |vert_formal_wrap#2| (|vert_formal_wrap_s|) (_ BitVec 1)) ; \mem_clock_20
; yosys-smt2-wire mem_clock_20 1
; yosys-smt2-clock mem_clock_20 posedge
(define-fun |vert_formal_wrap_n mem_clock_20| ((state |vert_formal_wrap_s|)) Bool (= ((_ extract 0 0) (|vert_formal_wrap#2| state)) #b1))
; yosys-smt2-wire reg_11 32
(define-fun |vert_formal_wrap_n reg_11| ((state |vert_formal_wrap_s|)) (_ BitVec 32) #b00000000000000000000000000000000)
; yosys-smt2-wire reg_36 32
(define-fun |vert_formal_wrap_n reg_36| ((state |vert_formal_wrap_s|)) (_ BitVec 32) #b00000000000000000000000000000000)
; yosys-smt2-wire rst 1
(define-fun |vert_formal_wrap_n rst| ((state |vert_formal_wrap_s|)) Bool false)
; yosys-smt2-wire rst_5 32
(define-fun |vert_formal_wrap_n rst_5| ((state |vert_formal_wrap_s|)) (_ BitVec 32) #b00000000000000000000000000000000)
; yosys-smt2-wire rst_52 32
(define-fun |vert_formal_wrap_n rst_52| ((state |vert_formal_wrap_s|)) (_ BitVec 32) #b00000000000000000000000000000000)
; yosys-smt2-wire rst_8 32
(define-fun |vert_formal_wrap_n rst_8| ((state |vert_formal_wrap_s|)) (_ BitVec 32) #b00000000000000000000000000000000)
; yosys-smt2-wire sig_12 32
(define-fun |vert_formal_wrap_n sig_12| ((state |vert_formal_wrap_s|)) (_ BitVec 32) #b00000000000000000000000000000000)
; yosys-smt2-wire tx_119 32
(define-fun |vert_formal_wrap_n tx_119| ((state |vert_formal_wrap_s|)) (_ BitVec 32) #b00000000000000000000000000000000)
; yosys-smt2-wire tx_13 32
(define-fun |vert_formal_wrap_n tx_13| ((state |vert_formal_wrap_s|)) (_ BitVec 32) #b00000000000000000000000000000000)
; yosys-smt2-wire tx_2 32
(define-fun |vert_formal_wrap_n tx_2| ((state |vert_formal_wrap_s|)) (_ BitVec 32) #b00000000000000000000000000000000)
; yosys-smt2-wire tx_27 32
(define-fun |vert_formal_wrap_n tx_27| ((state |vert_formal_wrap_s|)) (_ BitVec 32) #b00000000000000000000000000000000)
; yosys-smt2-wire tx_5 32
(define-fun |vert_formal_wrap_n tx_5| ((state |vert_formal_wrap_s|)) (_ BitVec 32) #b00000000000000000000000000000000)
(define-fun |vert_formal_wrap#3| ((state |vert_formal_wrap_s|)) (_ BitVec 1) (bvnot (|vert_formal_wrap#2| state))) ; $auto$rtlil.cc:3255:Not$311
; yosys-smt2-assume 0 $auto$formalff.cc:987:execute$312
(define-fun |vert_formal_wrap_u 0| ((state |vert_formal_wrap_s|)) Bool (or (= ((_ extract 0 0) (|vert_formal_wrap#3| state)) #b1) (not true))) ; $auto$formalff.cc:987:execute$312
; yosys-smt2-assert 0 _witness_.check_assert_vert_formal_wrap_sv_100_28 vert_formal_wrap.sv:100.5-100.111
(define-fun |vert_formal_wrap_a 0| ((state |vert_formal_wrap_s|)) Bool (or true (not (= ((_ extract 0 0) (|vert_formal_wrap#0| state)) #b1)))) ; _witness_.check_assert_vert_formal_wrap_sv_100_28
; yosys-smt2-assert 1 _witness_.check_assert_vert_formal_wrap_sv_101_38 vert_formal_wrap.sv:101.5-101.111
(define-fun |vert_formal_wrap_a 1| ((state |vert_formal_wrap_s|)) Bool (or true (not (= ((_ extract 0 0) (|vert_formal_wrap#0| state)) #b1)))) ; _witness_.check_assert_vert_formal_wrap_sv_101_38
; yosys-smt2-assert 2 _witness_.check_assert_vert_formal_wrap_sv_102_49 vert_formal_wrap.sv:102.5-102.64
(define-fun |vert_formal_wrap_a 2| ((state |vert_formal_wrap_s|)) Bool (or true (not (= ((_ extract 0 0) (|vert_formal_wrap#0| state)) #b1)))) ; _witness_.check_assert_vert_formal_wrap_sv_102_49
; yosys-smt2-assert 3 _witness_.check_assert_vert_formal_wrap_sv_103_55 vert_formal_wrap.sv:103.5-103.106
(define-fun |vert_formal_wrap_a 3| ((state |vert_formal_wrap_s|)) Bool (or true (not (= ((_ extract 0 0) (|vert_formal_wrap#0| state)) #b1)))) ; _witness_.check_assert_vert_formal_wrap_sv_103_55
; yosys-smt2-assert 4 _witness_.check_assert_vert_formal_wrap_sv_104_65 vert_formal_wrap.sv:104.5-104.152
(define-fun |vert_formal_wrap_a 4| ((state |vert_formal_wrap_s|)) Bool (or true (not (= ((_ extract 0 0) (|vert_formal_wrap#0| state)) #b1)))) ; _witness_.check_assert_vert_formal_wrap_sv_104_65
; yosys-smt2-assert 5 _witness_.check_assert_vert_formal_wrap_sv_105_80 vert_formal_wrap.sv:105.5-105.155
(define-fun |vert_formal_wrap_a 5| ((state |vert_formal_wrap_s|)) Bool (or true (not (= ((_ extract 0 0) (|vert_formal_wrap#0| state)) #b1)))) ; _witness_.check_assert_vert_formal_wrap_sv_105_80
; yosys-smt2-assert 6 _witness_.check_assert_vert_formal_wrap_sv_98_15 vert_formal_wrap.sv:98.7-98.62
(define-fun |vert_formal_wrap_a 6| ((state |vert_formal_wrap_s|)) Bool (or true (not (= ((_ extract 0 0) (|vert_formal_wrap#0| state)) #b1)))) ; _witness_.check_assert_vert_formal_wrap_sv_98_15
; yosys-smt2-assert 7 _witness_.check_assert_vert_formal_wrap_sv_99_20 vert_formal_wrap.sv:99.5-99.93
(define-fun |vert_formal_wrap_a 7| ((state |vert_formal_wrap_s|)) Bool (or true (not (= ((_ extract 0 0) (|vert_formal_wrap#0| state)) #b1)))) ; _witness_.check_assert_vert_formal_wrap_sv_99_20
(define-fun |vert_formal_wrap#4| ((state |vert_formal_wrap_s|)) (_ BitVec 1) (ite (= ((_ extract 0 0) (|vert_formal_wrap#1| state)) #b1) #b1 #b0)) ; $assert$vert_formal_wrap.sv:100$28_EN
; yosys-smt2-assume 1 _witness_.check_assume_vert_formal_wrap_sv_97_13 vert_formal_wrap.sv:97.5-97.18
(define-fun |vert_formal_wrap_u 1| ((state |vert_formal_wrap_s|)) Bool (or true (not (= ((_ extract 0 0) (|vert_formal_wrap#4| state)) #b1)))) ; _witness_.check_assume_vert_formal_wrap_sv_97_13
(define-fun |vert_formal_wrap_a| ((state |vert_formal_wrap_s|)) Bool (and
  (|vert_formal_wrap_a 0| state)
  (|vert_formal_wrap_a 1| state)
  (|vert_formal_wrap_a 2| state)
  (|vert_formal_wrap_a 3| state)
  (|vert_formal_wrap_a 4| state)
  (|vert_formal_wrap_a 5| state)
  (|vert_formal_wrap_a 6| state)
  (|vert_formal_wrap_a 7| state)
))
(define-fun |vert_formal_wrap_u| ((state |vert_formal_wrap_s|)) Bool (and
  (|vert_formal_wrap_u 0| state)
  (|vert_formal_wrap_u 1| state)
))
(define-fun |vert_formal_wrap_i| ((state |vert_formal_wrap_s|)) Bool (and
  (= (= ((_ extract 0 0) (|vert_formal_wrap#0| state)) #b1) false) ; $auto$async2sync.cc:107:execute$239
  (= (= ((_ extract 0 0) (|vert_formal_wrap#1| state)) #b1) false) ; _started
))
(define-fun |vert_formal_wrap_h| ((state |vert_formal_wrap_s|)) Bool true)
(define-fun |vert_formal_wrap_t| ((state |vert_formal_wrap_s|) (next_state |vert_formal_wrap_s|)) Bool (and
  (= #b1 (|vert_formal_wrap#1| next_state)) ; $procdff$208 \_started
  (= (|vert_formal_wrap#4| state) (|vert_formal_wrap#0| next_state)) ; $auto$async2sync.cc:110:execute$241 $auto$async2sync.cc:107:execute$239
)) ; end of module vert_formal_wrap
; yosys-smt2-topmod vert_formal_wrap
; end of yosys output
